87 99 96 94 
53 40 54 55 25 24 80 
82 47 19 49 36 46 48 
21 73 41 22 74 26 
28 76 33 81 9 78 34 35 1 
42 14 44 38 86 84 17 60 89 
5 83 45 8 18 6 
72 75 23 67 39 56 4 
2 57 15 43 97 13 58 
27 69 30 51 71 65 66 20 70 
31 88 7 52 
95 59 92 98 85 61 16 91 100 37 93 
12 29 79 3 68 77 50 
62 11 64 63 90 32 10 
